Route #1: 2 45 5 46 8 7
Route #2: 65 83 59 75 87 9 0 41 38 37 35 43
Route #3: 95 63 85 76 51 84 64 0 22 18 48 25 24
Route #4: 69 98 53 12 10 0 74 77 58 97 13 17
Route #5: 92 62 33 30 28 27 29 31 0 23 21 19 49 20 0 34 32 26 89
Route #6: 61 72 71 67 50 94 0 81 54 96 93 56 91 80
Route #7: 42 39 36 40 44 0 88 78 73 79 60 0 55 70 68
Route #8: 14 47 16 15 11 0 90 82 99 52 86 57 66 0 6 4 3 1 100
Cost: 17469
Optimal: True
